
Gurobi 11.0.0 (linux64) logging started Wed Apr 10 21:52:23 2024

Set parameter LogFile to value "/lustre1/scratch/348/vsc34888/JointResearch/05.Models/06.Benchmarking/B.Operation_cost/RTS24_ByStages_nc80/openStarNet_RTS24_ByStages_nc80.log"
Set parameter Method to value 2
Set parameter MIPFocus to value 1
Set parameter Presolve to value 2
Set parameter RINS to value 100
Set parameter MIPGap to value 0.01
Set parameter Threads to value 36
Set parameter TimeLimit to value 259200
Set parameter IterationLimit to value 760000000
Gurobi Optimizer version 11.0.0 build v11.0.0rc2 (linux64 - "Rocky Linux 8.8 (Green Obsidian)")

CPU model: Intel(R) Xeon(R) Gold 6140 CPU @ 2.30GHz, instruction set [SSE2|AVX|AVX2|AVX512]
Thread count: 36 physical cores, 36 logical processors, using up to 36 threads

Optimize a model with 31123 rows, 18577 columns and 82920 nonzeros
Model fingerprint: 0xa98186ef
Variable types: 18547 continuous, 30 integer (30 binary)
Coefficient statistics:
  Matrix range     [2e-02, 6e+02]
  Objective range  [1e+00, 1e+00]
  Bounds range     [4e-04, 3e+00]
  RHS range        [4e-04, 3e+00]
Presolve removed 16707 rows and 8745 columns
Presolve time: 0.19s
Presolved: 14416 rows, 9832 columns, 50778 nonzeros
Variable types: 9802 continuous, 30 integer (30 binary)
Found heuristic solution: objective 359.9820151
Root relaxation presolved: 14416 rows, 9832 columns, 50778 nonzeros

Root barrier log...

Ordering time: 0.01s

Barrier statistics:
 Dense cols : 30
 AA' NZ     : 1.067e+05
 Factor NZ  : 2.779e+05 (roughly 12 MB of memory)
 Factor Ops : 5.918e+06 (less than 1 second per iteration)
 Threads    : 36

                  Objective                Residual
Iter       Primal          Dual         Primal    Dual     Compl     Time
   0   7.89674581e+05 -9.23840944e+07  6.85e+00 3.49e+02  8.85e+03     0s
   1   1.34245686e+05 -2.91393460e+07  9.36e-01 2.61e-09  1.40e+03     0s
   2   4.13885676e+04 -4.17339539e+06  1.06e-01 1.73e-09  1.55e+02     0s
   3   2.39928431e+04 -3.77934434e+05  1.89e-03 3.14e-10  1.33e+01     0s
   4   7.31882036e+03 -4.85764367e+04  4.57e-05 2.98e-11  1.84e+00     0s
   5   2.02000416e+03 -1.11972410e+04  1.15e-05 5.88e-12  4.36e-01     0s
   6   7.19730016e+02 -2.80421274e+03  2.20e-06 1.82e-12  1.16e-01     0s
   7   5.05187840e+02 -8.72041765e+02  1.12e-06 3.64e-12  4.54e-02     0s
   8   3.38952935e+02 -5.56966735e+01  4.62e-07 3.64e-12  1.30e-02     0s
   9   2.71320949e+02  6.74422381e+01  2.45e-07 1.82e-12  6.73e-03     0s
  10   2.39755997e+02  1.26353202e+02  1.50e-07 1.82e-12  3.74e-03     0s
  11   2.06253477e+02  1.63433962e+02  5.36e-08 1.82e-12  1.41e-03     0s
  12   1.96620109e+02  1.76388925e+02  2.79e-08 1.82e-12  6.68e-04     0s
  13   1.92963558e+02  1.81505366e+02  1.83e-08 1.82e-12  3.78e-04     1s
  14   1.90577433e+02  1.83243928e+02  1.17e-08 1.82e-12  2.42e-04     1s
  15   1.88275481e+02  1.84826978e+02  5.16e-09 1.82e-12  1.14e-04     1s
  16   1.87298946e+02  1.85875939e+02  2.33e-09 1.82e-12  4.70e-05     1s
  17   1.86926947e+02  1.86152415e+02  1.28e-09 1.82e-12  2.56e-05     1s
  18   1.86614008e+02  1.86384528e+02  4.29e-10 1.82e-12  7.57e-06     1s
  19   1.86484175e+02  1.86401289e+02  1.32e-10 1.82e-12  2.74e-06     1s
  20   1.86461074e+02  1.86447192e+02  1.79e-10 1.82e-12  4.58e-07     1s
  21   1.86456377e+02  1.86454991e+02  1.30e-09 3.64e-12  4.57e-08     1s
  22   1.86456142e+02  1.86455973e+02  3.71e-10 4.24e-12  5.58e-09     1s
  23   1.86456108e+02  1.86456023e+02  1.95e-10 6.05e-12  2.80e-09     1s
  24   1.86456082e+02  1.86456033e+02  4.68e-10 3.12e-12  1.61e-09     1s
  25   1.86456078e+02  1.86456062e+02  1.88e-09 8.14e-12  5.53e-10     1s
  26   1.86456075e+02  1.86456073e+02  1.49e-09 1.38e-11  8.78e-11     1s
  27   1.86456074e+02  1.86456074e+02  1.32e-09 1.82e-12  4.73e-12     1s

Barrier solved model in 27 iterations and 0.62 seconds (0.56 work units)
Optimal objective 1.86456074e+02


Root relaxation: objective 1.864561e+02, 2215 iterations, 0.41 seconds (0.24 work units)

    Nodes    |    Current Node    |     Objective Bounds      |     Work
 Expl Unexpl |  Obj  Depth IntInf | Incumbent    BestBd   Gap | It/Node Time

     0     0  186.45607    0   21  359.98202  186.45607  48.2%     -    1s
H    0     0                     276.6579507  189.61755  31.5%     -    1s
     0     0  189.71268    0   18  276.65795  189.71268  31.4%     -    1s
     0     0  189.71285    0   18  276.65795  189.71285  31.4%     -    1s
     0     0  190.24556    0   18  276.65795  190.24556  31.2%     -    2s
     0     0  190.29573    0   20  276.65795  190.29573  31.2%     -    2s
     0     0  190.30221    0   20  276.65795  190.30221  31.2%     -    2s
     0     0  190.30225    0   20  276.65795  190.30225  31.2%     -    2s
     0     0  190.37507    0   16  276.65795  190.37507  31.2%     -    3s
     0     0  190.37916    0   20  276.65795  190.37916  31.2%     -    3s
     0     0  190.38010    0   21  276.65795  190.38010  31.2%     -    3s
     0     0  190.38114    0   21  276.65795  190.38114  31.2%     -    3s
     0     0  190.38118    0   21  276.65795  190.38118  31.2%     -    3s
     0     0  190.38665    0   19  276.65795  190.38665  31.2%     -    3s
     0     0  190.38683    0   20  276.65795  190.38683  31.2%     -    4s
H    0     0                     276.4798462  191.41130  30.8%     -    5s
     0     0  191.41130    0   19  276.47985  191.41130  30.8%     -    5s
H    0     0                     259.1716316  191.41130  26.1%     -    5s
H    0     0                     253.9972594  191.41130  24.6%     -    6s
H    0     0                     220.8865811  191.41130  13.3%     -   36s
     0     2  191.41130    0   19  220.88658  191.41130  13.3%     -   37s
H   97   130                     219.9518287  196.99910  10.4%   667   61s
H  104   130                     219.8688511  197.02853  10.4%   656   61s
H  120   130                     219.8352697  197.02853  10.4%   644   61s
   715   450  204.86423   11   12  219.83527  197.78230  10.0%   414   65s
  1213   548  205.30975    9   11  219.83527  199.27852  9.35%   373   78s
  1662   650  217.26751   12   11  219.83527  199.27852  9.35%   363   80s
  2497   791  206.10662    8   11  219.83527  202.88342  7.71%   332  115s
  2900   805  209.42794   10   10  219.83527  202.88342  7.71%   326  146s
  3000   831  213.35698   11   12  219.83527  202.88342  7.71%   325  181s
  4759  1078     cutoff   12       219.83527  209.89755  4.52%   290  185s
  7719  1541     cutoff   14       219.83527  211.59492  3.75%   258  190s
  9587  1755     cutoff   17       219.83527  212.38688  3.39%   244  218s
 10152  1756  217.17832   13   19  219.83527  213.02553  3.10%   241  239s
 10154  1757  217.49972   16   20  219.83527  213.02553  3.10%   241  243s
 10158  1760  218.07983   16   14  219.83527  213.02553  3.10%   241  245s
 10165  1765  213.43004   15   17  219.83527  213.02553  3.10%   241  268s
 10228  1836  213.02553   18   16  219.83527  213.02553  3.10%   245  270s
 10264  1854  213.02553   19   16  219.83527  213.02553  3.10%   246  292s
H10285  1758                     219.8352695  213.02553  3.10%   246  292s
 10300  1783  213.02553   19   14  219.83527  213.02553  3.10%   247  323s
H10301  1698                     219.8352688  213.02553  3.10%   247  323s
 10500  1752  213.02553   22   13  219.83527  213.02553  3.10%   249  355s
H10503  1671                     219.8352667  213.02553  3.10%   249  355s
 11519  1507  213.02553   23    8  219.83527  213.02553  3.10%   251  362s
 11895  1504  213.02553   22    9  219.83527  213.02553  3.10%   252  373s
 12412  1397  218.33642   23   12  219.83527  213.02553  3.10%   251  375s
 12596  1360  219.07899   23   12  219.83527  213.02553  3.10%   251  393s
 12798  1315  213.02553   22   10  219.83527  213.02553  3.10%   250  421s
 14656   974  214.05027   23    8  219.83527  213.02553  3.10%   244  425s
 17485  1028  219.71738   32    3  219.83527  214.58523  2.39%   231  438s
 19286   882 infeasible   26       219.83527  215.62375  1.92%   224  459s
 19889   748  219.55188   31    2  219.83527  216.08930  1.70%   222  476s

Cutting planes:
  Learned: 2
  Gomory: 3
  Implied bound: 999
  MIR: 335
  Flow cover: 552
  RLT: 6
  Relax-and-lift: 76

Explored 22464 nodes (4706951 simplex iterations) in 478.79 seconds (603.58 work units)
Thread count was 36 (of 36 available processors)

Solution count 10: 219.835 219.835 219.869 ... 359.982

Optimal solution found (tolerance 1.00e-02)
Best objective 2.198352666971e+02, best bound 2.187327780114e+02, gap 0.5015%

Gurobi 11.0.0 (linux64) logging started Wed Apr 10 22:00:26 2024

Set parameter LogFile to value "/lustre1/scratch/348/vsc34888/JointResearch/05.Models/06.Benchmarking/B.Operation_cost/RTS24_ByStages_nc80/openStarNet_RTS24_ByStages_nc80.log"
Set parameter Method to value 2
Set parameter MIPFocus to value 1
Set parameter Presolve to value 2
Set parameter RINS to value 100
Set parameter MIPGap to value 0.01
Set parameter Threads to value 36
Set parameter TimeLimit to value 259200
Set parameter IterationLimit to value 760000000
Gurobi Optimizer version 11.0.0 build v11.0.0rc2 (linux64 - "Rocky Linux 8.8 (Green Obsidian)")

CPU model: Intel(R) Xeon(R) Gold 6140 CPU @ 2.30GHz, instruction set [SSE2|AVX|AVX2|AVX512]
Thread count: 36 physical cores, 36 logical processors, using up to 36 threads

Optimize a model with 31123 rows, 18547 columns and 73290 nonzeros
Model fingerprint: 0x3a00437a
Coefficient statistics:
  Matrix range     [2e-02, 6e+02]
  Objective range  [1e+00, 1e+00]
  Bounds range     [4e-04, 3e+00]
  RHS range        [4e-04, 5e+01]
Presolve removed 26485 rows and 10689 columns
Presolve time: 0.04s
Presolved: 4638 rows, 7944 columns, 21376 nonzeros

Ordering time: 0.00s

Barrier statistics:
 AA' NZ     : 1.293e+04
 Factor NZ  : 3.870e+04 (roughly 4 MB of memory)
 Factor Ops : 5.286e+05 (less than 1 second per iteration)
 Threads    : 1

                  Objective                Residual
Iter       Primal          Dual         Primal    Dual     Compl     Time
   0   3.71322333e+06 -6.14525619e+07  1.63e+01 3.09e+03  6.83e+04     0s
   1   2.39631343e+05 -4.62434463e+07  9.13e-01 3.51e-11  6.73e+03     0s
   2   7.23008952e+04 -1.29415542e+07  2.01e-01 6.15e-11  1.33e+03     0s
   3   3.80690304e+04 -2.23052988e+06  3.02e-02 2.84e-11  1.92e+02     0s
   4   2.61295439e+04 -1.91908363e+05  8.02e-12 1.83e-11  1.71e+01     0s
   5   1.27677817e+04 -6.65294346e+04  2.63e-12 9.24e-12  6.22e+00     0s
   6   3.57277781e+03 -2.26238130e+04  1.58e-12 3.64e-12  2.05e+00     0s
   7   9.83923412e+02 -5.57417147e+03  5.09e-12 3.64e-12  5.14e-01     0s
   8   4.58470842e+02 -8.26408798e+02  3.18e-12 3.64e-12  1.01e-01     0s
   9   3.36879163e+02 -1.16448403e+02  2.55e-12 3.64e-12  3.56e-02     0s
  10   2.90242793e+02  4.47036371e+01  1.78e-12 3.64e-12  1.93e-02     0s
  11   2.55796933e+02  1.48564217e+02  3.93e-12 3.64e-12  8.41e-03     0s
  12   2.34757567e+02  2.02896915e+02  1.08e-11 7.28e-12  2.50e-03     0s
  13   2.26036668e+02  2.11988216e+02  4.63e-12 7.28e-12  1.10e-03     0s
  14   2.20839670e+02  2.18299691e+02  9.96e-12 3.64e-12  1.99e-04     0s
  15   2.20020209e+02  2.19673718e+02  8.10e-12 7.28e-12  2.72e-05     0s
  16   2.19838340e+02  2.19805673e+02  1.24e-11 3.64e-12  2.56e-06     0s
  17   2.19835947e+02  2.19832961e+02  1.30e-11 1.82e-12  2.34e-07     0s
  18   2.19835293e+02  2.19835192e+02  6.49e-12 7.28e-12  7.97e-09     0s
  19   2.19835270e+02  2.19835270e+02  1.06e-11 3.64e-12  7.97e-12     0s
  20   2.19835270e+02  2.19835270e+02  1.13e-12 7.28e-12  5.26e-17     0s

Barrier solved model in 20 iterations and 0.11 seconds (0.09 work units)
Optimal objective 2.19835270e+02

Crossover log...

     862 DPushes remaining with DInf 0.0000000e+00                 0s
       0 DPushes remaining with DInf 0.0000000e+00                 0s

     308 PPushes remaining with PInf 0.0000000e+00                 0s
       0 PPushes remaining with PInf 0.0000000e+00                 0s

  Push phase complete: Pinf 0.0000000e+00, Dinf 1.2741783e-12      0s

Iteration    Objective       Primal Inf.    Dual Inf.      Time
     332    2.1983527e+02   0.000000e+00   0.000000e+00      0s

Use crossover to convert LP symmetric solution to basic solution...
Crossover log...

       0 DPushes remaining with DInf 0.0000000e+00                 0s

     167 PPushes remaining with PInf 0.0000000e+00                 0s
       0 PPushes remaining with PInf 0.0000000e+00                 0s

  Push phase complete: Pinf 0.0000000e+00, Dinf 1.5566097e-12      0s

Iteration    Objective       Primal Inf.    Dual Inf.      Time
     511    2.1983527e+02   0.000000e+00   0.000000e+00      0s

Solved in 511 iterations and 0.15 seconds (0.12 work units)
Optimal objective  2.198352697e+02
